(assert (forall ((pkt_0_8_a_0  Int  )(pkt_1_9_b_0  Int  )(pkt_2_a_c_0  Int  )(pkt_3_b_d_0  Int  )(pkt_4_c_e_0  Int  )(state_group_0_state_0_d_f_0  Int  )(state_group_0_state_1_e_10_0  Int  )) (let ((_n0 state_group_0_state_1_e_10_0 ))
(let ((_n1 pkt_4_c_e_0 ))
(let ((_n2 (=   _n1   _n0 ) ))
(let ((_n3 state_group_0_state_0_d_f_0 ))
(let ((_n4 pkt_3_b_d_0 ))
(let ((_n5 (<   _n4   _n3 ) ))
(let ((_n6 (or   _n5   _n2 ) ))
(let ((_n7 (ite  _n6   _n4   _n3  ) ))
(let ((_n8 true ))
(let ((_n9 (-  _n4 )))
(let ((_n10 (+   _n3   _n9 ) ))
(let ((_n11 (<   _n10   (ite  _n8  1 0) ) ))
(let ((_n12 false ))
(let ((_n13 (ite  _n11   (ite  _n12  1 0)   _n4  ) ))
(let ((_n14 (-  _n13 )))
(let ((_n15 (ite  _n11   (ite  _n12  1 0)   _n3  ) ))
(let ((_n16 (+   _n15   _n14 ) ))
(let ((_n17 (=   _n16   (ite  _n12  1 0) ) ))
(let ((_n18 (not  _n17 ) ))
(let ((_n19 (not  _n11 ) ))
(let ((_n20 (and   _n19   _n18 ) ))
(let ((_n21 (not  _n20 ) ))
(let ((_n22 (or   _n21   _n11 ) ))
(let ((_n23 (ite  _n22   (ite  _n12  1 0)   _n4  ) ))
(let ((_n24 (-  _n23 )))
(let ((_n25 (=   _n24   (ite  _n8  1 0) ) ))
(let ((_n26 (not  _n25 ) ))
(let ((_n27 (not  _n22 ) ))
(let ((_n28 (and   _n27   _n26 ) ))
(let ((_n29 (or   _n28   _n22 ) ))
(let ((_n30 (ite  _n29   _n3   (ite  _n12  1 0)  ) ))
(let ((_n31 (not  _n28 ) ))
(let ((_n32 (or   _n31   _n22 ) ))
(let ((_n33 (ite  _n32   (ite  _n12  1 0)   _n4  ) ))
(let ((_n34 (ite  _n32   _n3   (ite  _n12  1 0)  ) ))
(let ((_n35 (+   _n34   _n33 ) ))
(let ((_n36 (ite (=  (ite  _n28  1 0)  1)  _n35   _n30  ) ))
(let ((_n37 (ite (=  (ite  _n20  1 0)  1)  _n36   _n3  ) ))
(let ((_n38 (ite  _n11   _n1   (ite  _n12  1 0)  ) ))
(let ((_n39 (-  _n38 )))
(let ((_n40 (ite  _n11   _n0   (ite  _n12  1 0)  ) ))
(let ((_n41 (+   _n40   _n39 ) ))
(let ((_n42 (=   _n41   (ite  _n12  1 0) ) ))
(let ((_n43 (and   _n11   _n42 ) ))
(let ((_n44 (and   _n43   _n11 ) ))
(let ((_n45 (ite  _n44   _n4   (ite  _n12  1 0)  ) ))
(let ((_n46 (ite  _n44   (ite  _n12  1 0)   _n3  ) ))
(let ((_n47 (+   _n46   _n45 ) ))
(let ((_n48 (ite (=  (ite  _n43  1 0)  1)  _n47   _n3  ) ))
(let ((_n49 (ite (=  (ite  _n11  1 0)  1)  _n48   _n37  ) ))
(let ((_n50 (=   _n49   _n7 ) ))
(let ((_n52 (ite  _n5   _n1   _n0  ) ))
(let ((_n53 (ite  _n29   (ite  _n12  1 0)   _n1  ) ))
(let ((_n54 (-  _n53 )))
(let ((_n55 2 ))
(let ((_n56 (ite  _n29   (ite  _n12  1 0)   _n55  ) ))
(let ((_n57 (+   _n56   _n54 ) ))
(let ((_n58 (ite  _n29   (ite  _n12  1 0)   _n57  ) ))
(let ((_n59 (ite  _n29   _n0   (ite  _n12  1 0)  ) ))
(let ((_n60 (+   _n59   _n58 ) ))
(let ((_n61 (ite  _n32   (ite  _n12  1 0)   _n1  ) ))
(let ((_n62 (ite  _n32   _n0   (ite  _n12  1 0)  ) ))
(let ((_n63 (+   _n62   _n61 ) ))
(let ((_n64 (ite (=  (ite  _n28  1 0)  1)  _n63   _n60  ) ))
(let ((_n65 (ite (=  (ite  _n20  1 0)  1)  _n64   _n0  ) ))
(let ((_n66 (ite (=  (ite  _n11  1 0)  1)  _n0   _n65  ) ))
(let ((_n67 (=   _n66   _n52 ) ))
(let ((_n69 pkt_0_8_a_0 ))
(let ((_n70 (<   _n69   (ite  _n12  1 0) ) ))
(let ((_n71 (ite  _n70   (ite  _n12  1 0)   _n69  ) ))
(let ((_n72 (ite (=  _n69  0)  (ite  _n12  1 0)   _n69  ) ))
(let ((_n73 (=   _n72   _n71 ) ))
(let ((_n75 (ite (=  _n69  0)  _n69   (ite  _n12  1 0)  ) ))
(let ((_n76 (ite (=  _n69  0)  _n75   _n69  ) ))
(let ((_n77 (=   _n76   _n71 ) ))
(let ((_n79 pkt_1_9_b_0 ))
(let ((_n80 (ite (=  _n79  0)  _n4   (ite  _n12  1 0)  ) ))
(let ((_n81 (ite (=  _n79  0)  _n80   _n4  ) ))
(let ((_n82 (=   _n81   _n4 ) ))
(let ((_n84 pkt_2_a_c_0 ))
(implies  (and (and (>= state_group_0_state_1_e_10_0 0) (< state_group_0_state_1_e_10_0 1024 ))  (and (and (>= state_group_0_state_0_d_f_0 0) (< state_group_0_state_0_d_f_0 1024 ))  (and (and (>= pkt_4_c_e_0 0) (< pkt_4_c_e_0 1024 ))  (and (and (>= pkt_3_b_d_0 0) (< pkt_3_b_d_0 1024 ))  (and (and (>= pkt_2_a_c_0 0) (< pkt_2_a_c_0 1024 ))  (and (and (>= pkt_1_9_b_0 0) (< pkt_1_9_b_0 1024 ))  (and (>= pkt_0_8_a_0 0) (< pkt_0_8_a_0 1024 )) ) ) ) ) ) )   (and  _n50  _n67  _n73  _n77  _n82 )  )))))))))))))))))))))))))))))))))))))))))))))))))))))))))))))))))))))))))))))))))))
(check-sat)
(get-model)
(exit)